n = 35;
m = 61;
w = [6,4,8,4,9,1,5,9,4,10,9,3,1,5,4,7,6,1,10,5,7,5,8,9,1,3,9,7,1,5,10,8,4,4,3,8,8,9,9,6,1,6,5,1,10,4,1,8,4,1,10,5,5,4,9,3,6,6,1,2,4];
edges = array2d(1..m, 1..2, [1,2,1,4,1,5,1,16,1,17,1,18,2,4,2,26,2,29,2,32,2,34,2,35,3,7,3,25,3,27,3,30,4,18,4,20,4,27,5,20,5,24,5,25,5,30,6,9,6,14,7,14,7,20,7,29,7,31,9,18,9,35,10,11,10,31,12,19,12,30,13,19,13,26,13,30,14,21,14,35,15,23,15,32,16,35,17,25,17,32,19,25,19,28,19,33,20,33,21,22,21,25,21,31,23,29,24,25,25,34,26,30,26,31,26,33,27,29,27,33,28,30]);
